NAME : eil101
COMMENT : 101-city problem (Christofides/Eilon)
TYPE : TSP
DIMENSION : 101
EDGE_WEIGHT_TYPE : EUC_2D
NODE_COORD_SECTION
1 60 200
2 180 200
3 80 180
4 140 180
5 20 160
6 100 160
7 200 160
8 140 140
9 40 120
10 100 120
11 180 100
12 60 80
EOF